15 40
25
2 11 13 17
3 2 7 26
7 10 4 14
4 8 9 0
5 9 4 0
2 7 11 11
1 4 9 28
1 6 10 26
5 4 4 28
3 8 8 32
3 1 4 27
5 5 4 9
1 3 6 24
4 12 11 28
2 6 9 8
4 2 7 24
4 11 0 26
2 10 11 18
2 3 11 8
2 11 13 0
4 3 0 37
4 26 0 0
4 8 4 32
2 3 4 24
2 6 13 11
